
Gurobi 10.0.1 (linux64) logging started Sun Nov 26 15:45:01 2023

Set parameter LogFile to value "ArtificialInstance/ExperimentV2/S3T4K1/BaSp/gurobi91.txt"
Gurobi Optimizer version 10.0.1 build v10.0.1rc0 (linux64)

CPU model: AMD EPYC 7H12 64-Core Processor, instruction set [SSE2|AVX|AVX2]
Thread count: 128 physical cores, 128 logical processors, using up to 32 threads

Academic license 656792 - for non-commercial use only - registered to b.___@student.vu.nl
Optimize a model with 1500 rows, 2240 columns and 7200 nonzeros
Model fingerprint: 0xfcf1b787
Variable types: 0 continuous, 2240 integer (2240 binary)
Coefficient statistics:
  Matrix range     [1e+00, 1e+00]
  Objective range  [1e+00, 2e+01]
  Bounds range     [1e+00, 1e+00]
  RHS range        [1e+00, 1e+00]
Found heuristic solution: objective 641.0328958
Presolve time: 0.01s
Presolved: 1500 rows, 2240 columns, 7200 nonzeros
Variable types: 0 continuous, 2240 integer (2240 binary)

Root relaxation: objective 3.904870e+01, 924 iterations, 0.01 seconds (0.01 work units)

    Nodes    |    Current Node    |     Objective Bounds      |     Work
 Expl Unexpl |  Obj  Depth IntInf | Incumbent    BestBd   Gap | It/Node Time

     0     0   39.04870    0  226  641.03290   39.04870  93.9%     -    0s
H    0     0                     242.0989572   39.04870  83.9%     -    0s
H    0     0                     234.6219255   39.04870  83.4%     -    0s
H    0     0                      69.6641323   39.04870  43.9%     -    0s
     0     0   43.30640    0  223   69.66413   43.30640  37.8%     -    0s
H    0     0                      62.7380821   43.30640  31.0%     -    0s
     0     0   43.30640    0  225   62.73808   43.30640  31.0%     -    0s
H    0     0                      59.7715584   45.07135  24.6%     -    0s
H    0     0                      59.1516124   48.24612  18.4%     -    0s
     0     0   48.24612    0  483   59.15161   48.24612  18.4%     -    0s
H    0     0                      53.9460538   48.66069  9.80%     -    0s
H    0     0                      51.0638377   48.66069  4.71%     -    0s
     0     0   49.87868    0  462   51.06384   49.87868  2.32%     -    0s
     0     0   49.87868    0  471   51.06384   49.87868  2.32%     -    0s
     0     0   49.90358    0  460   51.06384   49.90358  2.27%     -    0s
H    0     0                      50.3514492   49.90358  0.89%     -    0s
     0     0   49.90358    0  214   50.35145   49.90358  0.89%     -    0s
     0     0   49.90358    0  390   50.35145   49.90358  0.89%     -    0s
     0     0   49.90358    0  387   50.35145   49.90358  0.89%     -    0s
H    0     0                      50.0421799   49.90358  0.28%     -    0s
     0     0   50.04218    0  355   50.04218   50.04218  0.00%     -    0s

Cutting planes:
  Gomory: 18
  Clique: 2
  Zero half: 71
  RLT: 11

Explored 1 nodes (7273 simplex iterations) in 0.85 seconds (0.43 work units)
Thread count was 32 (of 128 available processors)

Solution count 10: 50.0422 50.3514 51.0638 ... 242.099

Optimal solution found (tolerance 1.00e-04)
Best objective 5.004217988260e+01, best bound 5.004217988260e+01, gap 0.0000%
